Optimal - objective value 227.33000000
      5 x0_6                   1                    9.74
      7 x0_8                   1                    6.57
     14 x1_0                   1                   21.94
     31 x2_4                   1                       0
     54 x3_13                  1                       0
     65 x4_10                  1                  -18.04
     78 x5_9                   1                       0
     95 x6_12                  1                       0
    108 x7_11                  1                       0
    125 x8_14                  1         5.46999999999999
    127 x9_1                   1                       0
    140 x10_0                  1                   -1.28
    157 x11_3                  1                       0
    175 x12_7                  1                       0
    187 x13_5                  1                       0
    198 x14_2                  1                       0
    210 u1                    35                       0
    211 u2                    17                       0
    212 u3                    21                       0
    213 u4                    22                       0
    214 u5                    29                       0
    215 u6                     4                       0
    216 u7                    13                       0
    217 u8                    10                       0
    218 u9                    32                       0
    219 u10                   35                       0
    220 u11                   15                       0
    221 u12      9.99999999999999                       0
    222 u13                   24                       0
    223 u14                   15                       0
